c Sudoku solution
p cnf 729 0
178 0
192 0
273 0
318 0
322 0
344 0
351 0
375 0
412 0
434 0
446 0
511 0
526 0
563 0
333 0
664 0
685 0
848 0
869 0
886 0
676 0
913 0
936 0
941 0
461 0
691 0
623 0
268 0
974 0
989 0
387 0
366 0
116 0
296 0
399 0
756 0
854 0
743 0
893 0
153 0
483 0
594 0
998 0
795 0
588 0
572 0
497 0
479 0
782 0
832 0
767 0
771 0
877 0
821 0
815 0
927 0
962 0
955 0
458 0
425 0
638 0
728 0
714 0
739 0
537 0
619 0
217 0
559 0
545 0
165 0
147 0
131 0
235 0
184 0
281 0
129 0
224 0
642 0
657 0
249 0
252 0
